lbl,CUST NO.,READY TIME,XCOORD.,YCOORD.,DEMAND,DUE DATE,SERVICE TIME
2,54,0,4,125,30,1176,90
2,18,0,8,124,10,1179,90
2,185,0,5,119,20,1180,90
2,7,0,1,109,10,1182,90
2,104,0,8,119,20,1182,90
2,117,0,7,115,10,1184,90
2,181,0,6,113,20,1184,90
2,161,0,10,118,10,1185,90
2,49,0,9,114,20,1186,90
2,132,515,0,117,30,585,90
